NAME : n100w160.005.586.tour
COMMENT : Length = 586
COMMENT : Found by LKH [Keld Helsgaun] Tue May  2 05:19:10 2017
TYPE : TOUR
DIMENSION : 101
TOUR_SECTION
1
22
87
20
84
23
78
83
42
35
15
55
50
2
30
14
88
72
82
86
63
57
33
52
85
9
24
12
7
66
73
81
100
38
101
26
58
18
39
27
64
77
76
68
4
41
75
36
49
53
54
37
48
93
70
46
44
79
25
3
56
11
94
98
16
31
34
43
10
99
62
28
92
47
71
91
21
74
80
67
59
8
65
61
40
95
13
6
96
17
51
19
90
32
60
69
29
45
97
89
5
-1
EOF
